NAME : eil51-4
COMMENT : 51-city problem (Christofides/Eilon)
TYPE : CTSP
DIMENSION : 51
SALESMEN : 4
EDGE_WEIGHT_TYPE : EUC_2D
NODE_COORD_SECTION
1 42 41
2 5 25
3 10 17
4 20 26
5 17 33
6 13 13
7 21 10
8 5 6
9 59 15
10 62 42
11 39 10
12 61 33
13 46 10
14 56 37
15 58 27
16 43 67
17 57 58
18 63 69
19 27 68
20 31 62
21 62 63
22 37 69
23 52 64
24 7 38
25 25 55
26 5 64
27 17 63
28 8 52
29 21 47
30 12 42
31 16 57
32 40 30
33 49 49
34 37 52
35 52 41
36 31 32
37 58 48
38 38 46
39 36 16
40 25 32
41 45 35
42 32 22
43 51 31
44 42 57
45 30 48
46 30 15
47 30 40
48 48 28
49 52 33
50 27 23
51 32 39
CTSP_SET_SECTION
1 2 3 4 5 6 7 8 -1
2 9 10 11 12 13 14 15 -1
3 16 17 18 19 20 21 22 23 -1
4 24 25 26 27 28 29 30 31 -1
DEPOT_SECTION
1
-1
EOF
